(set-info :source |printed by MathSAT|)
(declare-fun |main::local_14@2| () (_ BitVec 32))
(declare-fun |id::x__param__@2| () (_ BitVec 32))
(declare-fun |id::x@2| () (_ BitVec 32))
(declare-fun |id::x__param__@3| () (_ BitVec 32))
(declare-fun |id::__retval__@2| () (_ BitVec 32))
(declare-fun |id::iVar1@5| () (_ BitVec 32))
(declare-fun |id::__retval__@3| () (_ BitVec 32))
(declare-fun |id::__retval__@4| () (_ BitVec 32))
(declare-fun |id::x@3| () (_ BitVec 32))
(declare-fun |id::x__param__@4| () (_ BitVec 32))
(declare-fun |id::x@4| () (_ BitVec 32))
(declare-fun |id::iVar1@7| () (_ BitVec 32))
(declare-fun |id::iVar1@8| () (_ BitVec 32))
(declare-fun |id::iVar1@10| () (_ BitVec 32))
(declare-fun |id::iVar1@11| () (_ BitVec 32))
(declare-fun |main::iVar1@6| () (_ BitVec 32))
(assert (let ((.def_14 (= |id::x__param__@2| |id::x@2|)))(let ((.def_12 (= |main::local_14@2| |id::x__param__@2|)))(let ((.def_133 (and .def_12 .def_14)))(let ((.def_15 (= |id::x@2| (_ bv0 32))))(let ((.def_19 (not .def_15)))(let ((.def_134 (and .def_19 .def_133)))(let ((.def_24 (bvadd (_ bv4294967295 32) |id::x@2|)))(let ((.def_26 (= .def_24 |id::x__param__@3|)))(let ((.def_135 (and .def_26 .def_134)))(let ((.def_86 (= |id::x__param__@3| |id::x@3|)))(let ((.def_136 (and .def_86 .def_135)))(let ((.def_87 (= |id::x@3| (_ bv0 32))))(let ((.def_89 (not .def_87)))(let ((.def_137 (and .def_89 .def_136)))(let ((.def_93 (bvadd (_ bv4294967295 32) |id::x@3|)))(let ((.def_95 (= .def_93 |id::x__param__@4|)))(let ((.def_138 (and .def_95 .def_137)))(let ((.def_97 (= |id::x__param__@4| |id::x@4|)))(let ((.def_139 (and .def_97 .def_138)))(let ((.def_98 (= |id::x@4| (_ bv0 32))))(let ((.def_140 (and .def_98 .def_139)))(let ((.def_101 (= |id::iVar1@5| (_ bv0 32))))(let ((.def_141 (and .def_101 .def_140)))(let ((.def_103 (= |id::__retval__@2| |id::iVar1@5|)))(let ((.def_142 (and .def_103 .def_141)))(let ((.def_106 (= |id::__retval__@2| |id::iVar1@7|)))(let ((.def_143 (and .def_106 .def_142)))(let ((.def_108 (bvadd (_ bv1 32) |id::iVar1@7|)))(let ((.def_110 (= .def_108 |id::iVar1@8|)))(let ((.def_144 (and .def_110 .def_143)))(let ((.def_111 (bvslt (_ bv3 32) |id::iVar1@8|)))(let ((.def_113 (not .def_111)))(let ((.def_145 (and .def_113 .def_144)))(let ((.def_115 (= |id::__retval__@3| |id::iVar1@8|)))(let ((.def_146 (and .def_115 .def_145)))(let ((.def_118 (= |id::__retval__@3| |id::iVar1@10|)))(let ((.def_147 (and .def_118 .def_146)))(let ((.def_120 (bvadd (_ bv1 32) |id::iVar1@10|)))(let ((.def_122 (= .def_120 |id::iVar1@11|)))(let ((.def_148 (and .def_122 .def_147)))(let ((.def_123 (bvslt (_ bv3 32) |id::iVar1@11|)))(let ((.def_125 (not .def_123)))(let ((.def_149 (and .def_125 .def_148)))(let ((.def_127 (= |id::__retval__@4| |id::iVar1@11|)))(let ((.def_150 (and .def_127 .def_149)))(let ((.def_130 (= |id::__retval__@4| |main::iVar1@6|)))(let ((.def_151 (and .def_130 .def_150)))(let ((.def_131 (= |main::iVar1@6| (_ bv2 32))))(let ((.def_152 (and .def_131 .def_151))).def_152))))))))))))))))))))))))))))))))))))))))))))))))))